p cnf 70 35
43 -45 -61 0
-70 8 22 0
61 21 -22 0
47 -31 24 0
16 -54 -50 0
20 -40 -60 0
-10 -12 -16 0
60 50 68 0
52 44 39 0
-28 25 67 0
17 32 29 0
-18 -5 -48 0
-59 -29 55 0
-63 -38 20 0
36 55 59 0
1 53 55 0
-19 -30 -21 0
17 25 52 0
50 -70 21 0
-59 1 -43 0
43 69 -60 0
-30 -34 60 0
47 11 -4 0
-35 24 66 0
57 -13 -26 0
-55 -36 33 0
-20 -4 13 0
64 -17 -66 0
-18 -42 -65 0
-6 -23 -24 0
15 -36 -41 0
68 -5 -58 0
28 11 31 0
-51 23 -64 0
49 58 -53 0
